
d1 = 1;
d2 = 1;
c1 = 70;
c2 = 60;
c3 = 40;
Nodes = array1d(1..8,[1, 2, 3, 4, 6, 7, 8, 9]);

Nodes_Capacities = array1d(1..10, [c2, c3, c2, c3, c3, c3, c3, c3, c3, c3]);

Link_info = array2d(1..24, 1..4,[
1, 6, 1, 70, 1, 8, 1, 70, 1, 9, 1, 70, 
2, 3, 1, 70, 2, 6, 1, 70, 2, 9, 1, 70, 
3, 2, 1, 70, 3, 4, 1, 70, 3, 7, 1, 70, 
4, 3, 1, 70, 4, 8, 1, 70, 4, 9, 1, 70, %4, 10, 1, 100, 
%5, 6, 1, 100, 
6, 2, 1, 70, 6, 1, 1, 70, 6, 7, 1, 70, %6, 5, 1, 100, 
7, 3, 1, 70, 7, 6, 1, 70, 7, 8, 1, 70, 
8, 4, 1, 70, 8, 1, 1, 70, 8, 7, 1, 70, 
9, 2, 1, 70, 9, 4, 1, 70, 9, 1, 1, 70, 
]);
%10, 4, 1, 100]);
Flow_demands = [20,20,20];
%Limits = [10,10,10];
s = [1,1,1];
t = [3,3,3];

/*
f1: 10.3000 -> 5.1
f2: 10.4000 -> 5.2
f3: 10.5000 -> 5.3
f4: 5.1 -> 10.3000
f5: 5.2 -> 10.4000
f6: 5.3 -> 10.5000
*/










